
  25    0


   0  13 2 3 4 5 6 7 8 9 10 11 22 23 24 
  10   4 21 19 13 12 
   1   4 17 15 14 13 
   9   4 19 14 13 12 
   4   3 18 16 14 
   7   3 20 18 15 
  10   2 17 15 
   9   2 16 12 
   4   1 14 
   6   1 13 
   2   1 12 
   2   1 25
  10   1 25
   9   1 25
   3   1 25
   8   1 25
   2   1 25
   9   1 25
   9   1 25
   9   1 25
   7   1 25
   8   1 25
   1   1 25
  10   1 25
   0   0 
